36
0 0
3 31
23
15
3 0
9 18
22
15
9 0
18 5
21
14
18 0
35 7
20
13
9 5
12 22
19
12
12 5
16 25
17
11
16 5
18 35
18
11
18 7
26 15
16
10
26 7
30 17
15
10
30 7
34 29
13
9
18 17
29 24
11
7
3 22
10 34
12
8
18 24
27 43
10
6
0 34
10 42
9
5
27 24
30 58
1
1
10 25
13 61
3
2
13 25
16 56
14
9
0 42
10 48
8
5
30 29
33 58
4
3
16 43
21 57
2
2
21 43
25 52
7
4
33 29
36 48
6
4
0 48
8 53
5
3
0 53
9 60
0
1
